(declare-fun I0_14 () Int)
(declare-fun I0_27 () Int)
(declare-fun I0_35 () Int)
(declare-fun I0_38 () Int)
(declare-fun I0_43 () Int)
(declare-fun I0_6 () Int)
(declare-fun I0_9 () Int)
(declare-fun I1_14 () Int)
(declare-fun I1_43 () Int)
(declare-fun I2_14 () Int)
(declare-fun I2_43 () Int)
(declare-fun PCTEMP_LHS_1 () Int)
(declare-fun PCTEMP_LHS_2 () Int)
(declare-fun PCTEMP_LHS_3 () String)
(declare-fun PCTEMP_LHS_4 () String)
(declare-fun PCTEMP_LHS_5 () Int)
(declare-fun PCTEMP_LHS_6 () Int)
(declare-fun PCTEMP_LHS_7 () Int)
(declare-fun PCTEMP_LHS_8 () String)
(declare-fun T0_27 () String)
(declare-fun T0_35 () String)
(declare-fun T0_38 () String)
(declare-fun T0_6 () String)
(declare-fun T0_9 () String)
(declare-fun T1_14 () String)
(declare-fun T1_27 () String)
(declare-fun T1_35 () String)
(declare-fun T1_38 () String)
(declare-fun T1_43 () String)
(declare-fun T1_6 () String)
(declare-fun T1_9 () String)
(declare-fun T2_14 () String)
(declare-fun T2_27 () String)
(declare-fun T2_35 () String)
(declare-fun T2_38 () String)
(declare-fun T2_43 () String)
(declare-fun T2_6 () String)
(declare-fun T2_9 () String)
(declare-fun T3_14 () String)
(declare-fun T3_27 () String)
(declare-fun T3_35 () String)
(declare-fun T3_38 () String)
(declare-fun T3_43 () String)
(declare-fun T3_6 () String)
(declare-fun T3_9 () String)
(declare-fun T4_27 () String)
(declare-fun T4_35 () String)
(declare-fun T4_38 () String)
(declare-fun T4_6 () String)
(declare-fun T4_9 () String)
(declare-fun T5_27 () String)
(declare-fun T5_35 () String)
(declare-fun T5_38 () String)
(declare-fun T5_6 () String)
(declare-fun T5_9 () String)
(declare-fun T_1 () Bool)
(declare-fun T_10 () Bool)
(declare-fun T_11 () Bool)
(declare-fun T_12 () Bool)
(declare-fun T_13 () Bool)
(declare-fun T_15 () Bool)
(declare-fun T_16 () Bool)
(declare-fun T_17 () Bool)
(declare-fun T_18 () Bool)
(declare-fun T_19 () Bool)
(declare-fun T_1a () Bool)
(declare-fun T_1c () Bool)
(declare-fun T_1e () Bool)
(declare-fun T_1f () Bool)
(declare-fun T_2 () Bool)
(declare-fun T_20 () Int)
(declare-fun T_22 () Bool)
(declare-fun T_23 () Bool)
(declare-fun T_3 () Bool)
(declare-fun T_4 () Bool)
(declare-fun T_6 () Bool)
(declare-fun T_8 () Bool)
(declare-fun T_9 () Bool)
(declare-fun T_SELECT_1 () Bool)
(declare-fun T_SELECT_2 () Bool)
(declare-fun T_SELECT_3 () Bool)
(declare-fun T_SELECT_4 () Bool)
(declare-fun T_SELECT_5 () Bool)
(declare-fun T_a () Int)
(declare-fun T_c () Bool)
(declare-fun T_d () String)
(declare-fun T_e () String)
(declare-fun var_0xINPUT_37282 () String)

(assert (= T_22 (not (= PCTEMP_LHS_8 "-"))))
(assert (ite T_SELECT_5 (and (= PCTEMP_LHS_7 (+ I0_38 PCTEMP_LHS_6)) (= var_0xINPUT_37282 (str.++ T0_38 T1_38)) (= I0_38 (str.len T4_38)) (= PCTEMP_LHS_6 (str.len T0_38)) (= T1_38 (str.++ T2_38 T3_38)) (= T2_38 (str.++ T4_38 T5_38)) (= T5_38 ";") (not (str.in.re T4_38 (str.to.re ";")))) (and (= PCTEMP_LHS_7 (- 1)) (= var_0xINPUT_37282 (str.++ T0_38 T1_38)) (= PCTEMP_LHS_6 (str.len T0_38)) (not (str.in.re T1_38 (str.to.re ";"))))))
(assert (= T_1f (not T_1e)))
(assert (= T_20 (+ PCTEMP_LHS_6 7)))
(assert (= T_1f (not T_22)))
(assert (ite T_SELECT_4 (and (= PCTEMP_LHS_6 (+ I0_35 0)) (= var_0xINPUT_37282 (str.++ T0_35 T1_35)) (= I0_35 (str.len T4_35)) (= 0 (str.len T0_35)) (= T1_35 (str.++ T2_35 T3_35)) (= T2_35 (str.++ T4_35 T5_35)) (= T5_35 "__utmz=218069774.") (not (str.in.re T4_35 (re.++ (str.to.re "_") (re.++ (str.to.re "_") (re.++ (str.to.re "u") (re.++ (str.to.re "t") (re.++ (str.to.re "m") (re.++ (str.to.re "z") (re.++ (str.to.re "=") (re.++ (str.to.re "2") (re.++ (str.to.re "1") (re.++ (str.to.re "8") (re.++ (str.to.re "0") (re.++ (str.to.re "6") (re.++ (str.to.re "9") (re.++ (str.to.re "7") (re.++ (str.to.re "7") (re.++ (str.to.re "4") (str.to.re ".")))))))))))))))))))) (and (= PCTEMP_LHS_6 (- 1)) (= var_0xINPUT_37282 (str.++ T0_35 T1_35)) (= 0 (str.len T0_35)) (not (str.in.re T1_35 (re.++ (str.to.re "_") (re.++ (str.to.re "_") (re.++ (str.to.re "u") (re.++ (str.to.re "t") (re.++ (str.to.re "m") (re.++ (str.to.re "z") (re.++ (str.to.re "=") (re.++ (str.to.re "2") (re.++ (str.to.re "1") (re.++ (str.to.re "8") (re.++ (str.to.re "0") (re.++ (str.to.re "6") (re.++ (str.to.re "9") (re.++ (str.to.re "7") (re.++ (str.to.re "7") (re.++ (str.to.re "4") (str.to.re "."))))))))))))))))))))))
(assert (= I0_43 (- PCTEMP_LHS_7 T_20)))
(assert (>= PCTEMP_LHS_7 T_20))
(assert (= T_SELECT_5 (not (= PCTEMP_LHS_7 (- 1)))))
(assert (= T_1f (< (- 1) PCTEMP_LHS_6)))
(assert (= I0_43 (str.len PCTEMP_LHS_8)))
(assert (= T_SELECT_4 (not (= PCTEMP_LHS_6 (- 1)))))
(assert T_1f)
(assert (= var_0xINPUT_37282 (str.++ T1_14 T2_14)))
(assert (= T_1e (< PCTEMP_LHS_7 0)))

(check-sat)
